Set parameter TokenServer to value "hpc-licenses.hpcc.usc.edu"
Set parameter TimeLimit to value 3600
Gurobi Optimizer version 9.5.1 build v9.5.1rc2 (linux64)
Thread count: 20 physical cores, 20 logical processors, using up to 20 threads
Optimize a model with 6007 rows, 4529 columns and 24534 nonzeros
Model fingerprint: 0x0dbe8ebc
Variable types: 4506 continuous, 23 integer (23 binary)
Coefficient statistics:
  Matrix range     [1e+00, 1e+00]
  Objective range  [1e-03, 1e+00]
  Bounds range     [1e+00, 1e+00]
  RHS range        [1e+00, 1e+02]
Presolve removed 1520 rows and 1515 columns
Presolve time: 0.06s
Presolved: 4487 rows, 3014 columns, 21975 nonzeros
Variable types: 2994 continuous, 20 integer (20 binary)
Found heuristic solution: objective 278.7997590

Root relaxation: objective 2.871074e+02, 3351 iterations, 0.15 seconds (0.17 work units)

    Nodes    |    Current Node    |     Objective Bounds      |     Work
 Expl Unexpl |  Obj  Depth IntInf | Incumbent    BestBd   Gap | It/Node Time

     0     0  287.10745    0    5  278.79976  287.10745  2.98%     -    0s
     0     0  287.10448    0    2  278.79976  287.10448  2.98%     -    0s
H    0     0                     286.9866038  287.10448  0.04%     -    0s
     0     0  287.09706    0    5  286.98660  287.09706  0.04%     -    0s
     0     0  287.09706    0    2  286.98660  287.09706  0.04%     -    1s
     0     0     cutoff    0       286.98660  286.98660  0.00%     -    1s

Cutting planes:
  Gomory: 3
  MIR: 1
  Flow cover: 1

Explored 1 nodes (5474 simplex iterations) in 1.64 seconds (0.66 work units)
Thread count was 20 (of 20 available processors)

Solution count 2: 286.987 278.8 

Optimal solution found (tolerance 1.00e-04)
Best objective 2.869866038394e+02, best bound 2.869866038394e+02, gap 0.0000%



#########node  1
V1.8
#########node  2
0.04040404040404041,0.9595959595959596
#########node  3
1.0,0.0


Total Solving Time 2.078848361968994
obj value 286.986603839361
Policy Regret train (Sum) 3.4466623243982886
Best Treatment Found train (%) 75.4
treatment classification acc train (%) 61.8
Policy Regret test (Sum) 33.68478658989411
Best Treatment Found test (%) 82.75
treatment classification acc test (%) 60.550000000000004
